100
128
42
55
60
7
8
31
42
47
11
30
16
39
38
36
25
19
8
51
8
28
21
19
8
28
15
10
12
16
47
27
24
26
10
18
19
61
34
14
39
39
15
21
24
39
14
21
25
15
43
50
13
60
22
7
39
13
29
24
42
18
15
34
13
43
32
19
51
17
46
28
25
58
13
42
41
19
10
43
32
25
29
42
25
22
61
31
24
28
21
40
33
24
16
43
51
50
37
32
60
16